p edge 34 170
e 1 12
e 1 15
e 1 19
e 1 29
e 1 30
e 2 3
e 2 16
e 2 19
e 2 23
e 2 33
e 3 5
e 3 7
e 3 17
e 3 24
e 3 32
e 4 2
e 4 6
e 4 12
e 4 16
e 4 19
e 5 7
e 5 8
e 5 24
e 5 26
e 5 33
e 6 1
e 6 7
e 6 23
e 6 23
e 6 26
e 7 4
e 7 9
e 7 23
e 7 26
e 7 27
e 8 11
e 8 15
e 8 17
e 8 23
e 8 31
e 9 2
e 9 10
e 9 12
e 9 15
e 9 19
e 10 8
e 10 13
e 10 13
e 10 26
e 10 33
e 11 2
e 11 12
e 11 27
e 11 30
e 11 33
e 12 1
e 12 2
e 12 15
e 12 26
e 12 30
e 13 4
e 13 18
e 13 22
e 13 23
e 13 32
e 14 3
e 14 9
e 14 22
e 14 31
e 14 32
e 15 2
e 15 5
e 15 9
e 15 10
e 15 30
e 16 8
e 16 17
e 16 22
e 16 23
e 16 25
e 17 1
e 17 7
e 17 23
e 17 27
e 17 32
e 18 8
e 18 9
e 18 11
e 18 16
e 18 17
e 19 3
e 19 14
e 19 14
e 19 22
e 19 27
e 20 6
e 20 13
e 20 19
e 20 27
e 20 30
e 21 1
e 21 8
e 21 16
e 21 18
e 21 20
e 22 1
e 22 5
e 22 19
e 22 20
e 22 31
e 23 10
e 23 20
e 23 24
e 23 28
e 23 31
e 24 9
e 24 14
e 24 21
e 24 30
e 24 31
e 25 1
e 25 7
e 25 9
e 25 19
e 25 22
e 26 1
e 26 2
e 26 11
e 26 28
e 26 31
e 27 2
e 27 4
e 27 5
e 27 15
e 27 24
e 28 8
e 28 16
e 28 19
e 28 27
e 28 31
e 29 4
e 29 12
e 29 14
e 29 16
e 29 28
e 30 8
e 30 14
e 30 29
e 30 29
e 30 33
e 31 3
e 31 7
e 31 15
e 31 24
e 31 29
e 32 3
e 32 15
e 32 17
e 32 21
e 32 30
e 33 6
e 33 7
e 33 19
e 33 21
e 33 34
e 34 4
e 34 18
e 34 22
e 34 22
e 34 24
